# Solution for model GasLib-40
# Objective value = 5.4891987397418376e+01
loadshed[innode_1] 0
loadshed[innode_2] 0
loadshed[innode_3] 0
loadshed[innode_4] 0
loadshed[innode_5] 0
loadshed[innode_6] 0
loadshed[innode_7] 0
loadshed[innode_8] 0
loadshed[source_1] -1.0567505643265718e-01
loadshed[source_2] 5.4800258007002833e-02
loadshed[source_3] 3.9809404662355408e-01
loadshed[sink_1] 4.7115645385399940e-01
loadshed[sink_2] 0
loadshed[sink_3] 0
loadshed[sink_4] 0
loadshed[sink_5] 0
loadshed[sink_6] 0
loadshed[sink_7] 0
loadshed[sink_8] 0
loadshed[sink_9] 0
loadshed[sink_10] 0
loadshed[sink_11] 0
loadshed[sink_12] 1
loadshed[sink_13] 0
loadshed[sink_14] 0
loadshed[sink_15] 0
loadshed[sink_16] 0
loadshed[sink_17] 0
loadshed[sink_18] 0
loadshed[sink_19] 0
loadshed[sink_20] 0
loadshed[sink_21] 1
loadshed[sink_22] 0
loadshed[sink_23] 0
loadshed[sink_24] 8.8529627872699679e-01
loadshed[sink_25] 0
loadshed[sink_26] 0
loadshed[sink_27] 0
loadshed[sink_28] 0
loadshed[sink_29] 0
flow[source_1,sink_3] 1.7479647680339889e+02
flow[innode_1,sink_16] 1.6354166666666970e+01
flow[innode_6,sink_13] 1.9323687301299579e+01
flow[sink_13,sink_14] 2.9695206346329108e+00
flow[sink_14,sink_10] -1.3384646032033970e+01
flow[sink_25,sink_26] 104.359390355185
flow[sink_26,sink_9] 1.6354166666669244e+01
flow[sink_9,sink_18] 0
flow[sink_26,sink_4] 71.651057021849
flow[sink_4,sink_20] 5.5296890355182391e+01
flow[sink_18,sink_6] -1.6354166666667879e+01
flow[sink_25,innode_8] -1.4208814347006251e+02
flow[sink_6,sink_7] -5.7711295494263908e+01
flow[sink_6,sink_22] 2.5002962160929386e+01
flow[sink_7,sink_24] 1.8758837749855748e+00
flow[sink_22,sink_1] 8.64879549426272
flow[sink_24,sink_21] 0
flow[sink_21,sink_12] 0
flow[sink_7,sink_5] -7.5941345935916161e+01
flow[sink_5,sink_17] -9.2295512602582832e+01
flow[sink_17,sink_4] 0
flow[sink_17,sink_8] -1.0864967926924953e+02
flow[sink_3,sink_23] 16.3541666666697
flow[sink_8,sink_20] -1.2500384593591616e+02
flow[sink_25,sink_20] 86.0611222474005
flow[sink_25,sink_15] -8.4010223100488886e+01
flow[sink_15,sink_29] -5.6730372348493781e+01
flow[sink_29,sink_28] 1.6354166666667879e+01
flow[sink_29,sink_2] 5.9988184085328434e+01
flow[sink_2,sink_15] 4.3634017418661770e+01
flow[sink_29,innode_7] -1.4942688976715681e+02
flow[innode_4,sink_19] 95.1554793653805
flow[sink_19,innode_3] 3.0473943674372556e+01
flow[innode_4,innode_5] 0
flow[sink_27,innode_5] 0
flow[sink_27,sink_19] -1.6354166666679703e+01
flow[sink_10,sink_11] 3.2708333333333641e+01
flow[sink_10,innode_2] -3.1973202357661574e+01
flow[sink_10,innode_3] -3.0473943674372556e+01
flow[innode_6,sink_25] -1.9323687301299579e+01
flow[sink_11,innode_1] 1.6354166666666970e+01
flow[sink_19,innode_2] 3.1973202357661574e+01
flow[source_3,innode_4] 95.1554793653805
flow[source_2,innode_7] 1.4942688976715681e+02
flow[sink_3,innode_8] 1.4208814347006251e+02
pressure[innode_1] 7.5316641967508517e+01
pressure[innode_2] 7.7158259073365130e+01
pressure[innode_3] 77.090777975898
pressure[innode_4] 81.01325
pressure[innode_5] 81.01325
pressure[innode_6] 7.4947110780720863e+01
pressure[innode_7] 81.01325
pressure[innode_8] 8.0428972152720689e+01
pressure[source_1] 81.01325
pressure[source_2] 81.01325
pressure[source_3] 81.01325
pressure[sink_1] 1.0132500000000002e+00
pressure[sink_2] 75.4970976742433
pressure[sink_3] 8.0428972152720689e+01
pressure[sink_4] 5.8487239373904551e+01
pressure[sink_5] 3.4744409060653858e+01
pressure[sink_6] 2.3687586238806326e+00
pressure[sink_7] 3.1609971481087440e+00
pressure[sink_8] 4.5719392282174240e+01
pressure[sink_9] 66.618301120934
pressure[sink_10] 7.5468343275112062e+01
pressure[sink_11] 7.5316641967508517e+01
pressure[sink_12] 1.01325
pressure[sink_13] 7.4840582521916943e+01
pressure[sink_14] 7.4835268311794039e+01
pressure[sink_15] 7.5354642224153949e+01
pressure[sink_16] 7.4294992132690837e+01
pressure[sink_17] 41.6197576184197
pressure[sink_18] 1.9320536811273930e+00
pressure[sink_19] 7.7158259073365130e+01
pressure[sink_20] 5.4430402380940954e+01
pressure[sink_21] 1.01325
pressure[sink_22] 1.5758174455237031e+00
pressure[sink_23] 80.2642541410609
pressure[sink_24] 1.01325
pressure[sink_25] 7.4947110780720863e+01
pressure[sink_26] 6.7597140204876425e+01
pressure[sink_27] 7.6807129076221628e+01
pressure[sink_28] 76.7213838042795
pressure[sink_29] 7.7016666077896673e+01
interdiction[source_1,sink_3] 0
interdiction[innode_1,sink_16] 0
interdiction[innode_6,sink_13] 0
interdiction[sink_13,sink_14] 0
interdiction[sink_14,sink_10] 0
interdiction[sink_25,sink_26] 0
interdiction[sink_26,sink_9] 0
interdiction[sink_9,sink_18] 1
interdiction[sink_26,sink_4] 0
interdiction[sink_4,sink_20] 0
interdiction[sink_18,sink_6] 0
interdiction[sink_25,innode_8] 0
interdiction[sink_6,sink_7] 0
interdiction[sink_6,sink_22] 0
interdiction[sink_7,sink_24] 0
interdiction[sink_22,sink_1] 0
interdiction[sink_24,sink_21] 0
interdiction[sink_21,sink_12] 0
interdiction[sink_7,sink_5] 0
interdiction[sink_5,sink_17] 0
interdiction[sink_17,sink_4] 1
interdiction[sink_17,sink_8] 0
interdiction[sink_3,sink_23] 0
interdiction[sink_8,sink_20] 0
interdiction[sink_25,sink_20] 0
interdiction[sink_25,sink_15] 0
interdiction[sink_15,sink_29] 0
interdiction[sink_29,sink_28] 0
interdiction[sink_29,sink_2] 0
interdiction[sink_2,sink_15] 0
interdiction[sink_29,innode_7] 0
interdiction[innode_4,sink_19] 0
interdiction[sink_19,innode_3] 0
interdiction[innode_4,innode_5] 0
interdiction[sink_27,innode_5] 1
interdiction[sink_27,sink_19] 0
interdiction[sink_10,sink_11] 0
interdiction[sink_10,innode_2] 0
interdiction[sink_10,innode_3] 0
interdiction[innode_6,sink_25] 0
interdiction[sink_11,innode_1] 0
interdiction[sink_19,innode_2] 0
interdiction[source_3,innode_4] 0
interdiction[source_2,innode_7] 0
interdiction[sink_3,innode_8] 0
WCcheckFlow[source_1,sink_3] 39
WCcheckFlow[innode_1,sink_16] 1
WCcheckFlow[innode_6,sink_13] 13
WCcheckFlow[sink_13,sink_14] 12
WCcheckFlow[sink_14,sink_10] 11
WCcheckFlow[sink_25,sink_26] 15
WCcheckFlow[sink_26,sink_9] 1
WCcheckFlow[sink_9,sink_18] 0
WCcheckFlow[sink_26,sink_4] 13
WCcheckFlow[sink_4,sink_20] 12
WCcheckFlow[sink_18,sink_6] -1
WCcheckFlow[sink_25,innode_8] -36
WCcheckFlow[sink_6,sink_7] -4
WCcheckFlow[sink_6,sink_22] 2
WCcheckFlow[sink_7,sink_24] 3
WCcheckFlow[sink_22,sink_1] 1
WCcheckFlow[sink_24,sink_21] 2
WCcheckFlow[sink_21,sink_12] 1
WCcheckFlow[sink_7,sink_5] -8
WCcheckFlow[sink_5,sink_17] -9
WCcheckFlow[sink_17,sink_4] 0
WCcheckFlow[sink_17,sink_8] -10
WCcheckFlow[sink_3,sink_23] 1
WCcheckFlow[sink_8,sink_20] -11
WCcheckFlow[sink_25,sink_20] 0
WCcheckFlow[sink_25,sink_15] 6
WCcheckFlow[sink_15,sink_29] 5
WCcheckFlow[sink_29,sink_28] 1
WCcheckFlow[sink_29,sink_2] 1
WCcheckFlow[sink_2,sink_15] 0
WCcheckFlow[sink_29,innode_7] 2
WCcheckFlow[innode_4,sink_19] -3
WCcheckFlow[sink_19,innode_3] -5
WCcheckFlow[innode_4,innode_5] 1
WCcheckFlow[sink_27,innode_5] 0
WCcheckFlow[sink_27,sink_19] -1
WCcheckFlow[sink_10,sink_11] 3
WCcheckFlow[sink_10,innode_2] 1
WCcheckFlow[sink_10,innode_3] 6
WCcheckFlow[innode_6,sink_25] -14
WCcheckFlow[sink_11,innode_1] 2
WCcheckFlow[sink_19,innode_2] 0
WCcheckFlow[source_3,innode_4] -1
WCcheckFlow[source_2,innode_7] -1
WCcheckFlow[sink_3,innode_8] 37
